units 		real
dimension 	3
boundary 	p p p
atom_style 	full

read_data 	WaterGrapheneSystem.data

pair_style	lj/cut/coul/cut 10.0
bond_style	harmonic
angle_style	hybrid charmm harmonic
dihedral_style charmm

special_bonds lj/coul 0.0 0.0 0.0

pair_coeff 1 1 0.086 3.4
bond_coeff 2 305.0 1.4
angle_coeff 1 charmm 40.000 120.0 35.0 2.41620
dihedral_coeff 1 3.100 2 180 0.0

pair_coeff 3 3 1 1  
pair_coeff 2 2 1 1 
pair_coeff 2 3 1 1
bond_coeff 1 450 0.9572
angle_coeff 2 harmonic 55 104.52 

