## Initialization

units 		lj
atom_style 	atomic

## Atom definition

lattice 	fcc 0.8442 
region  	box block 0 20 0 20 0 20
create_box	1 box
create_atoms	1 box

## Settings

pair_style	lj/cut 2.5
pair_coeff	* * 1 1

mass		* 1.0
velocity	all create 303.0 23494


## neighbour list
neighbor 0.3 bin
neigh_modify every 10 dekay 0



## Run

fix 		1 all nve
#dump myDump all atom 100 dump.atom
#dump 4a all custom 100 dump.myforce.* id type x y vx fx
dump     id all image 200 dump.melt

thermo 		50
run		500


