
variable	t	index 0.0
variable	d	index 0.8442
log		melt_t.$t.log

units	lj
atom_style atomic

lattice	fcc $d
region	box block 0 10 0 10 0 10
create_box	1 box
create_atoms	1 box
mass	1	1.0
velocity	all create $t 87287

pair_style	lj/cut 2.5
pair_coeff	1 1 1.0 1.0 2.5
neighbor	0.3 bin
neigh_modify	every 20 delay 0 check no

fix 1 all nve
thermo 10
run 1000
